p edge 340 1360
e 1 137
e 1 236
e 1 283
e 1 306
e 2 120
e 2 166
e 2 200
e 2 209
e 3 59
e 3 61
e 3 110
e 3 148
e 4 222
e 4 234
e 4 260
e 4 263
e 5 12
e 5 126
e 5 224
e 5 254
e 6 14
e 6 232
e 6 316
e 6 334
e 7 70
e 7 199
e 7 227
e 7 338
e 8 5
e 8 36
e 8 71
e 8 140
e 9 23
e 9 165
e 9 310
e 9 310
e 10 87
e 10 89
e 10 164
e 10 224
e 11 57
e 11 62
e 11 95
e 11 254
e 12 181
e 12 304
e 12 322
e 12 339
e 13 36
e 13 147
e 13 290
e 13 323
e 14 43
e 14 203
e 14 242
e 14 309
e 15 69
e 15 231
e 15 266
e 15 338
e 16 144
e 16 182
e 16 279
e 16 313
e 17 9
e 17 9
e 17 252
e 17 255
e 18 52
e 18 235
e 18 290
e 18 292
e 19 116
e 19 125
e 19 132
e 19 246
e 20 176
e 20 202
e 20 215
e 20 220
e 21 276
e 21 297
e 21 299
e 21 311
e 22 32
e 22 110
e 22 132
e 22 146
e 23 84
e 23 114
e 23 182
e 23 281
e 24 22
e 24 228
e 24 245
e 24 325
e 25 211
e 25 225
e 25 252
e 25 287
e 26 69
e 26 213
e 26 267
e 26 284
e 27 23
e 27 195
e 27 214
e 27 275
e 28 17
e 28 32
e 28 41
e 28 67
e 29 141
e 29 148
e 29 159
e 29 195
e 30 104
e 30 239
e 30 245
e 30 310
e 31 44
e 31 46
e 31 165
e 31 215
e 32 63
e 32 118
e 32 212
e 32 221
e 33 3
e 33 73
e 33 116
e 33 217
e 34 18
e 34 137
e 34 317
e 34 328
e 35 48
e 35 60
e 35 87
e 35 264
e 36 8
e 36 143
e 36 183
e 36 314
e 37 120
e 37 124
e 37 241
e 37 242
e 38 33
e 38 63
e 38 145
e 38 318
e 39 14
e 39 191
e 39 206
e 39 339
e 40 13
e 40 45
e 40 95
e 40 309
e 41 12
e 41 123
e 41 182
e 41 335
e 42 95
e 42 168
e 42 171
e 42 207
e 43 231
e 43 244
e 43 245
e 43 309
e 44 6
e 44 138
e 44 220
e 44 296
e 45 15
e 45 27
e 45 143
e 45 255
e 46 22
e 46 62
e 46 97
e 46 156
e 47 20
e 47 136
e 47 220
e 47 248
e 48 27
e 48 70
e 48 238
e 48 280
e 49 59
e 49 275
e 49 279
e 49 286
e 50 90
e 50 160
e 50 247
e 50 249
e 51 130
e 51 216
e 51 229
e 51 282
e 52 57
e 52 224
e 52 278
e 52 322
e 53 61
e 53 84
e 53 99
e 53 192
e 54 2
e 54 19
e 54 77
e 54 301
e 55 51
e 55 94
e 55 103
e 55 273
e 56 37
e 56 108
e 56 242
e 56 275
e 57 2
e 57 121
e 57 179
e 57 284
e 58 62
e 58 128
e 58 137
e 58 182
e 59 76
e 59 76
e 59 241
e 59 337
e 60 21
e 60 28
e 60 105
e 60 226
e 61 4
e 61 108
e 61 239
e 61 309
e 62 36
e 62 81
e 62 133
e 62 162
e 63 135
e 63 185
e 63 228
e 63 245
e 64 8
e 64 206
e 64 291
e 64 294
e 65 101
e 65 180
e 65 182
e 65 317
e 66 81
e 66 88
e 66 114
e 66 161
e 67 31
e 67 227
e 67 294
e 67 316
e 68 85
e 68 90
e 68 220
e 68 258
e 69 37
e 69 190
e 69 281
e 69 325
e 70 135
e 70 217
e 70 277
e 70 314
e 71 138
e 71 197
e 71 249
e 71 304
e 72 145
e 72 232
e 72 263
e 72 271
e 73 19
e 73 30
e 73 238
e 73 306
e 74 46
e 74 83
e 74 246
e 74 321
e 75 162
e 75 218
e 75 288
e 75 296
e 76 1
e 76 147
e 76 170
e 76 339
e 77 34
e 77 87
e 77 123
e 77 231
e 78 212
e 78 253
e 78 280
e 78 329
e 79 66
e 79 73
e 79 121
e 79 193
e 80 2
e 80 35
e 80 255
e 80 269
e 81 18
e 81 52
e 81 177
e 81 266
e 82 40
e 82 193
e 82 194
e 82 214
e 83 31
e 83 223
e 83 224
e 83 317
e 84 76
e 84 113
e 84 215
e 84 297
e 85 237
e 85 272
e 85 332
e 85 340
e 86 142
e 86 209
e 86 255
e 86 271
e 87 160
e 87 219
e 87 228
e 87 251
e 88 33
e 88 72
e 88 89
e 88 127
e 89 102
e 89 117
e 89 137
e 89 161
e 90 10
e 90 23
e 90 237
e 90 272
e 91 58
e 91 107
e 91 250
e 91 286
e 92 12
e 92 137
e 92 192
e 92 251
e 93 153
e 93 168
e 93 235
e 93 282
e 94 42
e 94 137
e 94 182
e 94 194
e 95 33
e 95 68
e 95 290
e 95 337
e 96 65
e 96 81
e 96 114
e 96 204
e 97 24
e 97 24
e 97 181
e 97 262
e 98 56
e 98 121
e 98 269
e 98 307
e 99 44
e 99 89
e 99 115
e 99 315
e 100 50
e 100 114
e 100 280
e 100 324
e 101 111
e 101 156
e 101 174
e 101 254
e 102 7
e 102 36
e 102 120
e 102 318
e 103 47
e 103 54
e 103 131
e 103 188
e 104 70
e 104 88
e 104 237
e 104 324
e 105 175
e 105 263
e 105 290
e 105 333
e 106 33
e 106 215
e 106 239
e 106 318
e 107 55
e 107 102
e 107 213
e 107 222
e 108 9
e 108 125
e 108 140
e 108 323
e 109 72
e 109 160
e 109 184
e 109 304
e 110 123
e 110 201
e 110 278
e 110 333
e 111 134
e 111 149
e 111 169
e 111 285
e 112 27
e 112 47
e 112 108
e 112 160
e 113 73
e 113 82
e 113 116
e 113 162
e 114 33
e 114 58
e 114 113
e 114 141
e 115 7
e 115 25
e 115 305
e 115 336
e 116 10
e 116 117
e 116 214
e 116 258
e 117 26
e 117 86
e 117 132
e 117 218
e 118 59
e 118 162
e 118 215
e 118 225
e 119 41
e 119 68
e 119 178
e 119 206
e 120 63
e 120 68
e 120 324
e 120 327
e 121 120
e 121 180
e 121 231
e 121 317
e 122 38
e 122 78
e 122 262
e 122 337
e 123 25
e 123 83
e 123 235
e 123 331
e 124 3
e 124 12
e 124 308
e 124 331
e 125 212
e 125 230
e 125 306
e 125 338
e 126 6
e 126 100
e 126 108
e 126 127
e 127 107
e 127 223
e 127 259
e 127 321
e 128 38
e 128 66
e 128 309
e 128 317
e 129 18
e 129 88
e 129 162
e 129 229
e 130 5
e 130 170
e 130 213
e 130 230
e 131 164
e 131 189
e 131 251
e 131 336
e 132 57
e 132 123
e 132 246
e 132 266
e 133 108
e 133 144
e 133 187
e 133 291
e 134 111
e 134 130
e 134 196
e 134 269
e 135 1
e 135 108
e 135 247
e 135 280
e 136 41
e 136 108
e 136 235
e 136 330
e 137 4
e 137 25
e 137 46
e 137 88
e 138 25
e 138 140
e 138 213
e 138 244
e 139 59
e 139 101
e 139 181
e 139 321
e 140 199
e 140 288
e 140 313
e 140 338
e 141 33
e 141 122
e 141 214
e 141 323
e 142 82
e 142 168
e 142 248
e 142 301
e 143 252
e 143 289
e 143 306
e 143 327
e 144 41
e 144 94
e 144 158
e 144 234
e 145 42
e 145 45
e 145 76
e 145 213
e 146 21
e 146 184
e 146 291
e 146 297
e 147 2
e 147 78
e 147 307
e 147 321
e 148 13
e 148 102
e 148 136
e 148 217
e 149 275
e 149 314
e 149 333
e 149 333
e 150 94
e 150 163
e 150 286
e 150 331
e 151 76
e 151 76
e 151 131
e 151 310
e 152 35
e 152 157
e 152 195
e 152 313
e 153 15
e 153 160
e 153 197
e 153 336
e 154 247
e 154 265
e 154 321
e 154 336
e 155 56
e 155 159
e 155 181
e 155 326
e 156 137
e 156 200
e 156 239
e 156 324
e 157 93
e 157 138
e 157 188
e 157 300
e 158 73
e 158 151
e 158 161
e 158 332
e 159 6
e 159 15
e 159 192
e 159 289
e 160 5
e 160 183
e 160 224
e 160 292
e 161 274
e 161 293
e 161 294
e 161 317
e 162 29
e 162 109
e 162 265
e 162 328
e 163 119
e 163 151
e 163 323
e 163 336
e 164 101
e 164 264
e 164 279
e 164 316
e 165 41
e 165 203
e 165 243
e 165 260
e 166 14
e 166 44
e 166 270
e 166 331
e 167 39
e 167 73
e 167 83
e 167 180
e 168 57
e 168 155
e 168 190
e 168 234
e 169 111
e 169 212
e 169 316
e 169 339
e 170 47
e 170 62
e 170 71
e 170 226
e 171 15
e 171 73
e 171 103
e 171 259
e 172 55
e 172 145
e 172 183
e 172 215
e 173 101
e 173 163
e 173 197
e 173 302
e 174 30
e 174 112
e 174 177
e 174 298
e 175 99
e 175 217
e 175 217
e 175 314
e 176 74
e 176 120
e 176 207
e 176 229
e 177 5
e 177 112
e 177 281
e 177 290
e 178 77
e 178 130
e 178 198
e 178 316
e 179 1
e 179 163
e 179 209
e 179 310
e 180 64
e 180 81
e 180 98
e 180 105
e 181 14
e 181 24
e 181 200
e 181 304
e 182 17
e 182 78
e 182 241
e 182 254
e 183 115
e 183 251
e 183 259
e 183 289
e 184 22
e 184 28
e 184 311
e 184 318
e 185 30
e 185 140
e 185 195
e 185 208
e 186 16
e 186 93
e 186 95
e 186 308
e 187 190
e 187 248
e 187 256
e 187 295
e 188 37
e 188 103
e 188 149
e 188 266
e 189 134
e 189 236
e 189 249
e 189 266
e 190 7
e 190 150
e 190 188
e 190 242
e 191 201
e 191 205
e 191 206
e 191 265
e 192 101
e 192 215
e 192 242
e 192 332
e 193 75
e 193 87
e 193 125
e 193 280
e 194 19
e 194 58
e 194 169
e 194 257
e 195 98
e 195 197
e 195 321
e 195 323
e 196 65
e 196 85
e 196 168
e 196 283
e 197 17
e 197 51
e 197 173
e 197 313
e 198 9
e 198 119
e 198 283
e 198 306
e 199 50
e 199 130
e 199 227
e 199 280
e 200 77
e 200 136
e 200 237
e 200 311
e 201 154
e 201 213
e 201 309
e 201 319
e 202 7
e 202 115
e 202 204
e 202 282
e 203 28
e 203 143
e 203 302
e 203 329
e 204 272
e 204 297
e 204 308
e 204 326
e 205 4
e 205 26
e 205 233
e 205 254
e 206 101
e 206 188
e 206 294
e 206 322
e 207 2
e 207 32
e 207 37
e 207 310
e 208 9
e 208 124
e 208 153
e 208 209
e 209 45
e 209 106
e 209 148
e 209 230
e 210 19
e 210 37
e 210 153
e 210 225
e 211 26
e 211 75
e 211 122
e 211 172
e 212 110
e 212 189
e 212 208
e 212 275
e 213 174
e 213 178
e 213 186
e 213 314
e 214 131
e 214 163
e 214 276
e 214 328
e 215 28
e 215 38
e 215 131
e 215 178
e 216 9
e 216 10
e 216 15
e 216 257
e 217 46
e 217 139
e 217 210
e 217 252
e 218 51
e 218 55
e 218 135
e 218 332
e 219 42
e 219 139
e 219 156
e 219 175
e 220 46
e 220 91
e 220 219
e 220 235
e 221 32
e 221 71
e 221 87
e 221 309
e 222 25
e 222 52
e 222 158
e 222 191
e 223 25
e 223 207
e 223 265
e 223 299
e 224 4
e 224 225
e 224 235
e 224 241
e 225 15
e 225 82
e 225 134
e 225 150
e 226 33
e 226 43
e 226 159
e 226 271
e 227 12
e 227 41
e 227 76
e 227 83
e 228 2
e 228 63
e 228 164
e 228 224
e 229 109
e 229 155
e 229 157
e 229 253
e 230 195
e 230 199
e 230 202
e 230 294
e 231 60
e 231 102
e 231 132
e 231 144
e 232 29
e 232 196
e 232 248
e 232 338
e 233 58
e 233 92
e 233 168
e 233 210
e 234 6
e 234 172
e 234 264
e 234 316
e 235 36
e 235 203
e 235 305
e 235 312
e 236 5
e 236 185
e 236 309
e 236 338
e 237 3
e 237 17
e 237 250
e 237 329
e 238 95
e 238 286
e 238 290
e 238 291
e 239 59
e 239 100
e 239 292
e 239 327
e 240 108
e 240 129
e 240 257
e 240 265
e 241 62
e 241 182
e 241 231
e 241 325
e 242 103
e 242 197
e 242 225
e 242 228
e 243 52
e 243 56
e 243 282
e 243 323
e 244 13
e 244 16
e 244 77
e 244 227
e 245 55
e 245 63
e 245 112
e 245 203
e 246 65
e 246 97
e 246 272
e 246 296
e 247 54
e 247 70
e 247 170
e 247 255
e 248 119
e 248 277
e 248 298
e 248 339
e 249 84
e 249 248
e 249 282
e 249 310
e 250 50
e 250 133
e 250 178
e 250 235
e 251 91
e 251 103
e 251 117
e 251 306
e 252 68
e 252 187
e 252 225
e 252 299
e 253 223
e 253 261
e 253 296
e 253 340
e 254 76
e 254 110
e 254 152
e 254 223
e 255 59
e 255 131
e 255 312
e 255 321
e 256 37
e 256 226
e 256 255
e 256 268
e 257 16
e 257 59
e 257 267
e 257 318
e 258 94
e 258 147
e 258 257
e 258 324
e 259 48
e 259 199
e 259 266
e 259 322
e 260 103
e 260 120
e 260 163
e 260 184
e 261 218
e 261 222
e 261 269
e 261 280
e 262 8
e 262 19
e 262 52
e 262 58
e 263 8
e 263 77
e 263 146
e 263 175
e 264 76
e 264 216
e 264 255
e 264 269
e 265 23
e 265 49
e 265 227
e 265 249
e 266 35
e 266 44
e 266 135
e 266 293
e 267 93
e 267 178
e 267 287
e 267 324
e 268 76
e 268 130
e 268 226
e 268 316
e 269 32
e 269 55
e 269 91
e 269 233
e 270 29
e 270 79
e 270 82
e 270 304
e 271 175
e 271 187
e 271 232
e 271 308
e 272 98
e 272 109
e 272 123
e 272 315
e 273 149
e 273 155
e 273 199
e 273 244
e 274 30
e 274 77
e 274 246
e 274 275
e 275 128
e 275 169
e 275 197
e 275 319
e 276 21
e 276 122
e 276 134
e 276 232
e 277 117
e 277 171
e 277 196
e 277 267
e 278 118
e 278 144
e 278 147
e 278 148
e 279 39
e 279 172
e 279 237
e 279 284
e 280 1
e 280 3
e 280 200
e 280 247
e 281 11
e 281 40
e 281 82
e 281 124
e 282 14
e 282 133
e 282 171
e 282 256
e 283 13
e 283 35
e 283 292
e 283 331
e 284 111
e 284 128
e 284 137
e 284 328
e 285 30
e 285 180
e 285 303
e 285 306
e 286 157
e 286 220
e 286 283
e 286 299
e 287 129
e 287 138
e 287 193
e 287 291
e 288 56
e 288 153
e 288 275
e 288 279
e 289 57
e 289 167
e 289 185
e 289 309
e 290 80
e 290 87
e 290 100
e 290 185
e 291 97
e 291 129
e 291 138
e 291 172
e 292 211
e 292 229
e 292 265
e 292 279
e 293 92
e 293 150
e 293 189
e 293 224
e 294 100
e 294 258
e 294 269
e 294 277
e 295 120
e 295 178
e 295 241
e 295 277
e 296 34
e 296 80
e 296 235
e 296 335
e 297 24
e 297 157
e 297 234
e 297 290
e 298 31
e 298 95
e 298 170
e 298 334
e 299 15
e 299 23
e 299 56
e 299 256
e 300 12
e 300 24
e 300 71
e 300 123
e 301 209
e 301 288
e 301 294
e 301 322
e 302 5
e 302 79
e 302 164
e 302 301
e 303 154
e 303 179
e 303 215
e 303 259
e 304 49
e 304 142
e 304 298
e 304 303
e 305 50
e 305 140
e 305 242
e 305 289
e 306 134
e 306 178
e 306 228
e 306 240
e 307 133
e 307 157
e 307 162
e 307 285
e 308 35
e 308 166
e 308 180
e 308 257
e 309 9
e 309 130
e 309 151
e 309 302
e 310 23
e 310 197
e 310 240
e 310 273
e 311 94
e 311 98
e 311 179
e 311 243
e 312 174
e 312 212
e 312 257
e 312 261
e 313 52
e 313 95
e 313 178
e 313 230
e 314 100
e 314 237
e 314 320
e 314 332
e 315 10
e 315 36
e 315 48
e 315 294
e 316 11
e 316 59
e 316 159
e 316 305
e 317 3
e 317 99
e 317 159
e 317 291
e 318 132
e 318 182
e 318 197
e 318 315
e 319 92
e 319 159
e 319 191
e 319 260
e 320 15
e 320 71
e 320 85
e 320 86
e 321 3
e 321 50
e 321 98
e 321 193
e 322 95
e 322 109
e 322 202
e 322 313
e 323 76
e 323 105
e 323 273
e 323 293
e 324 22
e 324 136
e 324 156
e 324 184
e 325 65
e 325 142
e 325 255
e 325 301
e 326 123
e 326 174
e 326 174
e 326 265
e 327 24
e 327 235
e 327 332
e 327 338
e 328 27
e 328 140
e 328 154
e 328 179
e 329 11
e 329 146
e 329 241
e 329 286
e 330 16
e 330 41
e 330 198
e 330 273
e 331 55
e 331 231
e 331 247
e 331 260
e 332 118
e 332 203
e 332 214
e 332 248
e 333 31
e 333 146
e 333 228
e 333 307
e 334 123
e 334 153
e 334 175
e 334 204
e 335 89
e 335 113
e 335 230
e 335 249
e 336 37
e 336 71
e 336 294
e 336 295
e 337 85
e 337 144
e 337 286
e 337 289
e 338 53
e 338 170
e 338 286
e 338 312
e 339 72
e 339 115
e 339 124
e 339 194
e 340 3
e 340 96
e 340 234
e 340 237
